sat
(model
(define-fun |main$tmp_guard0#3| () (_ BitVec 8) #b00000001)
(define-fun |goto_symex::&92;guard#1| () Bool true)
(define-fun |goto_symex::&92;guard#2| () Bool false)
(define-fun array_of.0 () (Array (_ BitVec 32) (_ BitVec 1)) ((as const (Array (_ BitVec 32) (_ BitVec 1))) #b0))
(define-fun |main::1::t1006!0@1| () (_ BitVec 32) #b00000000000000000000000000000000)
(define-fun |main::1::t1007!0@1| () (_ BitVec 32) #b00000000000000000000000000000000)
(define-fun |__CPROVER_next_thread_id#3| () (_ BitVec 32) #b00000000000000000000000000000001)
(define-fun |main::1::t1008!0@1| () (_ BitVec 32) #b00000000000000000000000000000000)
(define-fun |__CPROVER_next_thread_id#6| () (_ BitVec 32) #b00000000000000000000000000000010)
(define-fun |__unbuffered_cnt#2| () (_ BitVec 32) #b00000000000000000000000000000011)
(define-fun |y$w_buff0_used#2| () (_ BitVec 8) #b00000000)
(define-fun |y$r_buff0_thd0#2| () (_ BitVec 8) #b00000000)
(define-fun |y$w_buff0#2| () (_ BitVec 32) #b00000000000000000000000000000001)
(define-fun |y$w_buff1_used#2| () (_ BitVec 8) #b00000000)
(define-fun |y$r_buff1_thd0#2| () (_ BitVec 8) #b00000000)
(define-fun |y$w_buff1#2| () (_ BitVec 32) #b00000000000000000000000000000000)
(define-fun |y#2| () (_ BitVec 32) #b00000000000000000000000000000001)
(define-fun |y#4| () (_ BitVec 32) #b00000000000000000000000000000001)
(define-fun |y$w_buff0_used#6| () (_ BitVec 8) #b00000000)
(define-fun |y$w_buff1_used#6| () (_ BitVec 8) #b00000000)
(define-fun |y$r_buff0_thd0#8| () (_ BitVec 8) #b00000000)
(define-fun |y$r_buff1_thd0#7| () (_ BitVec 8) #b00000000)
(define-fun |x#2| () (_ BitVec 32) #b00000000000000000000000000000010)
(define-fun |__unbuffered_p1_EAX#2| () (_ BitVec 32) #b00000000000000000000000000000000)
(define-fun |__unbuffered_p2_EAX#2| () (_ BitVec 32) #b00000000000000000000000000000001)
(define-fun |__unbuffered_p2_EBX#2| () (_ BitVec 32) #b00000000000000000000000000000000)
(define-fun |main$tmp_guard1#2| () (_ BitVec 8) #b00000000)
(define-fun |main$tmp_guard1#3| () (_ BitVec 8) #b00000000)
(define-fun |main$tmp_guard1#6| () (_ BitVec 8) #b00000000)
(define-fun |pthread_create::1::this_thread_id!1@0#0| () (_ BitVec 32) #b00000000000000000000000000000000)
(define-fun |__unbuffered_cnt#4| () (_ BitVec 32) #b00000000000000000000000000000001)
(define-fun |nondet_symex::nondet0| () (_ BitVec 32) #b00000000000000000000000000000000)
(define-fun |__CPROVER_threads_exited#2| () (Array (_ BitVec 32) (_ BitVec 1)) (store ((as const (Array (_ BitVec 32) (_ BitVec 1))) #b0) #b00000000000000000000000000000000 #b1))
(define-fun |pthread_create::1::this_thread_id!2@0#0| () (_ BitVec 32) #b00000000000000000000000000000000)
(define-fun |nondet_symex::nondet1| () (_ BitVec 32) #b00000000000000000000000000000000)
(define-fun |nondet_symex::nondet2| () (_ BitVec 32) #b00000000000000000000000000000000)
(define-fun |y#6| () (_ BitVec 32) #b00000000000000000000000000000000)
(define-fun |y$w_buff0_used#11| () (_ BitVec 8) #b00000001)
(define-fun |y$r_buff0_thd2#2| () (_ BitVec 8) #b00000000)
(define-fun |y$w_buff1_used#9| () (_ BitVec 8) #b00000000)
(define-fun |y$r_buff1_thd2#2| () (_ BitVec 8) #b00000000)
(define-fun |y$w_buff0#4| () (_ BitVec 32) #b00000000000000000000000000000001)
(define-fun |y$w_buff1#4| () (_ BitVec 32) #b00000000000000000000000000000000)
(define-fun |__unbuffered_cnt#7| () (_ BitVec 32) #b00000000000000000000000000000000)
(define-fun |nondet_symex::nondet3| () (_ BitVec 32) #b00000000000000000000000000000000)
(define-fun |__CPROVER_threads_exited#4| () (Array (_ BitVec 32) (_ BitVec 1)) (store ((as const (Array (_ BitVec 32) (_ BitVec 1))) #b0) #b00000000000000000000000000000000 #b1))
(define-fun |pthread_create::1::this_thread_id!3@0#0| () (_ BitVec 32) #b00000000000000000000000000000000)
(define-fun |y$w_buff0#7| () (_ BitVec 32) #b00000000000000000000000000000000)
(define-fun |y$w_buff0_used#14| () (_ BitVec 8) #b00000000)
(define-fun |y$r_buff0_thd0#11| () (_ BitVec 8) #b00000000)
(define-fun |y$r_buff1_thd0#9| () (_ BitVec 8) #b00000000)
(define-fun |y$r_buff1_thd0#10| () (_ BitVec 8) #b00000000)
(define-fun |y$r_buff0_thd1#2| () (_ BitVec 8) #b00000000)
(define-fun |y$r_buff1_thd1#2| () (_ BitVec 8) #b00000000)
(define-fun |y$r_buff1_thd1#3| () (_ BitVec 8) #b00000000)
(define-fun |y$r_buff0_thd2#5| () (_ BitVec 8) #b00000000)
(define-fun |y$r_buff1_thd2#5| () (_ BitVec 8) #b00000000)
(define-fun |y$r_buff1_thd2#6| () (_ BitVec 8) #b00000000)
(define-fun |y$r_buff0_thd3#2| () (_ BitVec 8) #b00000000)
(define-fun |y$r_buff1_thd3#2| () (_ BitVec 8) #b00000000)
(define-fun |y$r_buff1_thd3#3| () (_ BitVec 8) #b00000000)
(define-fun |y$r_buff0_thd3#4| () (_ BitVec 8) #b00000001)
(define-fun |z#2| () (_ BitVec 32) #b00000000000000000000000000000001)
(define-fun |z#3| () (_ BitVec 32) #b00000000000000000000000000000000)
(define-fun |z#5| () (_ BitVec 32) #b00000000000000000000000000000001)
(define-fun |__unbuffered_p2_EAX#4| () (_ BitVec 32) #b00000000000000000000000000000001)
(define-fun |__unbuffered_p2_EAX#5| () (_ BitVec 32) #b00000000000000000000000000000000)
(define-fun |a#3| () (_ BitVec 32) #b00000000000000000000000000000000)
(define-fun |__unbuffered_p2_EBX#4| () (_ BitVec 32) #b00000000000000000000000000000000)
(define-fun |__unbuffered_p2_EBX#5| () (_ BitVec 32) #b00000000000000000000000000000000)
(define-fun |y$w_buff0_used#17| () (_ BitVec 8) #b00000001)
(define-fun |y$r_buff0_thd3#6| () (_ BitVec 8) #b00000001)
(define-fun |y$w_buff0#10| () (_ BitVec 32) #b00000000000000000000000000000001)
(define-fun |y$w_buff1_used#13| () (_ BitVec 8) #b00000000)
(define-fun |y$r_buff1_thd3#5| () (_ BitVec 8) #b00000000)
(define-fun |y$w_buff1#8| () (_ BitVec 32) #b00000000000000000000000000000000)
(define-fun |y#10| () (_ BitVec 32) #b00000000000000000000000000000000)
(define-fun |y#12| () (_ BitVec 32) #b00000000000000000000000000000001)
(define-fun |y$w_buff0_used#21| () (_ BitVec 8) #b00000000)
(define-fun |y$w_buff1_used#17| () (_ BitVec 8) #b00000000)
(define-fun |y$r_buff0_thd3#12| () (_ BitVec 8) #b00000001)
(define-fun |y$r_buff1_thd3#10| () (_ BitVec 8) #b00000000)
(define-fun |__unbuffered_cnt#10| () (_ BitVec 32) #b00000000000000000000000000000010)
(define-fun |__unbuffered_cnt#12| () (_ BitVec 32) #b00000000000000000000000000000011)
(define-fun |nondet_symex::nondet4| () (_ BitVec 32) #b00000000000000000000000000000000)
(define-fun |__CPROVER_threads_exited#6| () (Array (_ BitVec 32) (_ BitVec 1)) ((as const (Array (_ BitVec 32) (_ BitVec 1))) #b0))
(define-fun |main::1::t1006!0@1#1| () (_ BitVec 32) #b00000000000000000000000000000000)
(define-fun |pthread_create::1::this_thread_id!0@1#1| () (_ BitVec 32) #b00000000000000000000000000000000)
(define-fun |main::1::t1007!0@1#1| () (_ BitVec 32) #b00000000000000000000000000000000)
(define-fun |pthread_create::1::this_thread_id!0@2#1| () (_ BitVec 32) #b00000000000000000000000000000000)
(define-fun |main::1::t1008!0@1#1| () (_ BitVec 32) #b00000000000000000000000000000000)
(define-fun |pthread_create::1::this_thread_id!0@3#1| () (_ BitVec 32) #b00000000000000000000000000000000)
(define-fun |P0::$tmp::return_value___VERIFIER_nondet_pointer$1!1@1#1| () (_ BitVec 32) #b00000000000000000000000000000000)
(define-fun |P1::$tmp::return_value___VERIFIER_nondet_pointer$1!2@1#1| () (_ BitVec 32) #b00000000000000000000000000000000)
(define-fun |P1::$tmp::return_value___VERIFIER_nondet_pointer$2!2@1#1| () (_ BitVec 32) #b00000000000000000000000000000000)
(define-fun |P1::$tmp::return_value___VERIFIER_nondet_pointer$3!2@1#1| () (_ BitVec 32) #b00000000000000000000000000000000)
(define-fun |P2::$tmp::return_value___VERIFIER_nondet_pointer$1!3@1#1| () (_ BitVec 32) #b00000000000000000000000000000000)
(define-fun |memory_model::choice_rf_1_4_0_10_T_0| () Bool false)
(define-fun |__CPROVER_threads_exited#1$wclk$8| () (_ BitVec 8) #b00100001)
(define-fun |__CPROVER_threads_exited#2$rclk$8| () (_ BitVec 8) #b11110110)
(define-fun |memory_model::choice_rf_1_4_2_23_T_1| () Bool false)
(define-fun |__CPROVER_threads_exited#5$wclk$8| () (_ BitVec 8) #b11110111)
(define-fun |memory_model::choice_rf_1_4_3_42_T_2| () Bool true)
(define-fun |__CPROVER_threads_exited#7$wclk$8| () (_ BitVec 8) #b11110101)
(define-fun |memory_model::choice_rf_2_22_0_10_T_3| () Bool false)
(define-fun |__CPROVER_threads_exited#4$rclk$8| () (_ BitVec 8) #b11110110)
(define-fun |memory_model::choice_rf_2_22_1_5_T_4| () Bool false)
(define-fun |__CPROVER_threads_exited#3$wclk$8| () (_ BitVec 8) #b11111111)
(define-fun |memory_model::choice_rf_2_22_3_42_T_5| () Bool true)
(define-fun |memory_model::choice_rf_3_41_0_10_T_6| () Bool true)
(define-fun |__CPROVER_threads_exited#6$rclk$8| () (_ BitVec 8) #b11110100)
(define-fun |memory_model::choice_rf_3_41_1_5_T_7| () Bool false)
(define-fun |memory_model::choice_rf_3_41_2_23_T_8| () Bool false)
(define-fun |memory_model::choice_rf_0_44_0_8_T_9| () Bool false)
(define-fun |memory_model::choice_rf_0_44_0_40_T_10| () Bool true)
(define-fun |memory_model::choice_rf_0_49_0_8_T_11| () Bool false)
(define-fun |memory_model::choice_rf_0_49_0_40_T_12| () Bool false)
(define-fun |memory_model::choice_rf_0_49_0_45_T_13| () Bool true)
(define-fun |memory_model::choice_rf_0_72_0_20_F_14| () Bool false)
(define-fun |memory_model::choice_rf_0_72_1_1_F_15| () Bool false)
(define-fun |x#4$wclk$8| () (_ BitVec 8) #b11100101)
(define-fun |x#2$rclk$8| () (_ BitVec 8) #b11111011)
(define-fun |memory_model::choice_rf_0_72_2_0_F_16| () Bool true)
(define-fun |x#5$wclk$8| () (_ BitVec 8) #b11101000)
(define-fun |memory_model::choice_rf_0_53_0_11_F_17| () Bool false)
(define-fun |memory_model::choice_rf_0_53_1_3_F_18| () Bool false)
(define-fun |__unbuffered_cnt#6$wclk$8| () (_ BitVec 8) #b11110001)
(define-fun |__unbuffered_cnt#2$rclk$8| () (_ BitVec 8) #b11110101)
(define-fun |memory_model::choice_rf_0_53_2_21_F_19| () Bool false)
(define-fun |__unbuffered_cnt#9$wclk$8| () (_ BitVec 8) #b11110000)
(define-fun |memory_model::choice_rf_0_53_3_40_F_20| () Bool true)
(define-fun |__unbuffered_cnt#13$wclk$8| () (_ BitVec 8) #b11110011)
(define-fun |memory_model::choice_rf_1_2_0_11_F_21| () Bool false)
(define-fun |__unbuffered_cnt#1$wclk$8| () (_ BitVec 8) #b00100010)
(define-fun |__unbuffered_cnt#4$rclk$8| () (_ BitVec 8) #b11110001)
(define-fun |memory_model::choice_rf_1_2_2_21_F_22| () Bool true)
(define-fun |memory_model::choice_rf_1_2_3_40_F_23| () Bool false)
(define-fun |memory_model::choice_rf_2_20_0_11_F_24| () Bool true)
(define-fun |__unbuffered_cnt#7$rclk$8| () (_ BitVec 8) #b11110000)
(define-fun |memory_model::choice_rf_2_20_1_3_F_25| () Bool false)
(define-fun |memory_model::choice_rf_2_20_3_40_F_26| () Bool false)
(define-fun |memory_model::choice_rf_3_39_0_11_F_27| () Bool false)
(define-fun |__unbuffered_cnt#10$rclk$8| () (_ BitVec 8) #b11110011)
(define-fun |memory_model::choice_rf_3_39_1_3_F_28| () Bool true)
(define-fun |memory_model::choice_rf_3_39_2_21_F_29| () Bool false)
(define-fun |memory_model::choice_rf_0_71_0_12_F_30| () Bool false)
(define-fun |memory_model::choice_rf_0_71_2_8_F_31| () Bool true)
(define-fun |__unbuffered_p1_EAX#4$wclk$8| () (_ BitVec 8) #b11101001)
(define-fun |__unbuffered_p1_EAX#2$rclk$8| () (_ BitVec 8) #b11111011)
(define-fun |memory_model::choice_rf_0_70_0_13_F_32| () Bool false)
(define-fun |memory_model::choice_rf_0_70_3_23_F_33| () Bool true)
(define-fun |__unbuffered_p2_EAX#6$wclk$8| () (_ BitVec 8) #b11100001)
(define-fun |__unbuffered_p2_EAX#2$rclk$8| () (_ BitVec 8) #b11111011)
(define-fun |memory_model::choice_rf_3_21_0_13_F_34| () Bool false)
(define-fun |__unbuffered_p2_EAX#1$wclk$8| () (_ BitVec 8) #b00100101)
(define-fun |__unbuffered_p2_EAX#5$rclk$8| () (_ BitVec 8) #b11100001)
(define-fun |memory_model::choice_rf_0_69_0_14_F_35| () Bool false)
(define-fun |memory_model::choice_rf_0_69_3_26_F_36| () Bool true)
(define-fun |__unbuffered_p2_EBX#6$wclk$8| () (_ BitVec 8) #b11100011)
(define-fun |__unbuffered_p2_EBX#2$rclk$8| () (_ BitVec 8) #b11111011)
(define-fun |memory_model::choice_rf_3_24_0_14_F_37| () Bool false)
(define-fun |__unbuffered_p2_EBX#1$wclk$8| () (_ BitVec 8) #b00100110)
(define-fun |__unbuffered_p2_EBX#5$rclk$8| () (_ BitVec 8) #b11100011)
(define-fun |memory_model::choice_rf_3_25_0_15_F_38| () Bool true)
(define-fun |a#1$wclk$8| () (_ BitVec 8) #b00100111)
(define-fun |a#3$rclk$8| () (_ BitVec 8) #b11100011)
(define-fun |memory_model::choice_rf_3_25_1_0_F_39| () Bool false)
(define-fun |a#2$wclk$8| () (_ BitVec 8) #b11100100)
(define-fun |memory_model::choice_rf_0_55_0_16_F_40| () Bool false)
(define-fun |memory_model::choice_rf_0_55_0_54_F_41| () Bool true)
(define-fun |memory_model::choice_rf_0_68_0_17_F_42| () Bool false)
(define-fun |main$tmp_guard1#5| () (_ BitVec 8) #b00000000)
(define-fun |memory_model::choice_rf_0_74_0_17_F_43| () Bool false)
(define-fun |memory_model::choice_rf_0_74_0_73_F_44| () Bool true)
(define-fun |memory_model::choice_rf_0_75_0_17_F_45| () Bool false)
(define-fun |memory_model::choice_rf_0_75_0_73_F_46| () Bool true)
(define-fun |memory_model::choice_rf_0_56_0_21_F_47| () Bool false)
(define-fun |memory_model::choice_rf_0_56_2_13_F_48| () Bool false)
(define-fun |y#9$wclk$8| () (_ BitVec 8) #b11101001)
(define-fun |y#2$rclk$8| () (_ BitVec 8) #b11111010)
(define-fun |memory_model::choice_rf_0_56_3_38_F_49| () Bool true)
(define-fun |y#13$wclk$8| () (_ BitVec 8) #b11101111)
(define-fun |memory_model::choice_rf_2_7_0_21_F_50| () Bool true)
(define-fun |y#1$wclk$8| () (_ BitVec 8) #b00110001)
(define-fun |y#6$rclk$8| () (_ BitVec 8) #b11101001)
(define-fun |memory_model::choice_rf_2_7_0_67_F_51| () Bool false)
(define-fun |y#5$wclk$8| () (_ BitVec 8) #b11111010)
(define-fun |memory_model::choice_rf_2_7_3_38_F_52| () Bool false)
(define-fun |memory_model::choice_rf_3_27_0_21_F_53| () Bool false)
(define-fun |y#10$rclk$8| () (_ BitVec 8) #b11101111)
(define-fun |memory_model::choice_rf_3_27_0_67_F_54| () Bool false)
(define-fun |memory_model::choice_rf_3_27_2_13_F_55| () Bool true)
(define-fun |memory_model::choice_rf_0_61_0_24_F_56| () Bool true)
(define-fun |memory_model::choice_rf_3_5_0_24_F_57| () Bool true)
(define-fun |y$r_buff0_thd0#1$wclk$8| () (_ BitVec 8) #b00111100)
(define-fun |y$r_buff0_thd0#11$rclk$8| () (_ BitVec 8) #b10111111)
(define-fun |memory_model::choice_rf_3_5_0_64_F_58| () Bool false)
(define-fun |y$r_buff0_thd0#10$wclk$8| () (_ BitVec 8) #b11111010)
(define-fun |memory_model::choice_rf_3_4_0_25_F_59| () Bool true)
(define-fun |y$r_buff0_thd1#1$wclk$8| () (_ BitVec 8) #b00111101)
(define-fun |y$r_buff0_thd1#2$rclk$8| () (_ BitVec 8) #b10111111)
(define-fun |memory_model::choice_rf_2_4_0_26_F_60| () Bool true)
(define-fun |y$r_buff0_thd2#1$wclk$8| () (_ BitVec 8) #b00111110)
(define-fun |y$r_buff0_thd2#2$rclk$8| () (_ BitVec 8) #b11101001)
(define-fun |memory_model::choice_rf_3_1_0_26_F_61| () Bool true)
(define-fun |y$r_buff0_thd2#5$rclk$8| () (_ BitVec 8) #b10111111)
(define-fun |memory_model::choice_rf_3_1_2_15_F_62| () Bool false)
(define-fun |y$r_buff0_thd2#4$wclk$8| () (_ BitVec 8) #b11101001)
(define-fun |memory_model::choice_rf_3_0_0_27_F_63| () Bool true)
(define-fun |y$r_buff0_thd3#1$wclk$8| () (_ BitVec 8) #b00111111)
(define-fun |y$r_buff0_thd3#2$rclk$8| () (_ BitVec 8) #b10111111)
(define-fun |memory_model::choice_rf_3_31_0_27_F_64| () Bool false)
(define-fun |y$r_buff0_thd3#6$rclk$8| () (_ BitVec 8) #b11101111)
(define-fun |memory_model::choice_rf_3_31_3_10_F_65| () Bool true)
(define-fun |memory_model::choice_rf_0_58_0_28_F_66| () Bool false)
(define-fun |memory_model::choice_rf_0_58_3_12_F_67| () Bool true)
(define-fun |y$r_buff1_thd0#11$wclk$8| () (_ BitVec 8) #b10111111)
(define-fun |y$r_buff1_thd0#2$rclk$8| () (_ BitVec 8) #b11111010)
(define-fun |memory_model::choice_rf_3_3_0_28_F_68| () Bool false)
(define-fun |y$r_buff1_thd0#1$wclk$8| () (_ BitVec 8) #b01000100)
(define-fun |y$r_buff1_thd0#10$rclk$8| () (_ BitVec 8) #b10111111)
(define-fun |memory_model::choice_rf_3_3_0_63_F_69| () Bool false)
(define-fun |y$r_buff1_thd0#8$wclk$8| () (_ BitVec 8) #b11111010)
(define-fun |memory_model::choice_rf_3_2_0_29_F_70| () Bool false)
(define-fun |y$r_buff1_thd1#1$wclk$8| () (_ BitVec 8) #b01001100)
(define-fun |y$r_buff1_thd1#3$rclk$8| () (_ BitVec 8) #b10111111)
(define-fun |memory_model::choice_rf_2_5_0_30_F_71| () Bool false)
(define-fun |y$r_buff1_thd2#1$wclk$8| () (_ BitVec 8) #b01001101)
(define-fun |y$r_buff1_thd2#2$rclk$8| () (_ BitVec 8) #b11101001)
(define-fun |memory_model::choice_rf_2_5_3_14_F_72| () Bool true)
(define-fun |y$r_buff1_thd2#7$wclk$8| () (_ BitVec 8) #b10111111)
(define-fun |memory_model::choice_rf_3_7_0_30_F_73| () Bool false)
(define-fun |y$r_buff1_thd2#6$rclk$8| () (_ BitVec 8) #b10111111)
(define-fun |memory_model::choice_rf_3_7_2_9_F_74| () Bool false)
(define-fun |y$r_buff1_thd2#4$wclk$8| () (_ BitVec 8) #b11101001)
(define-fun |memory_model::choice_rf_3_6_0_31_F_75| () Bool false)
(define-fun |y$r_buff1_thd3#1$wclk$8| () (_ BitVec 8) #b01001110)
(define-fun |y$r_buff1_thd3#3$rclk$8| () (_ BitVec 8) #b10111111)
(define-fun |memory_model::choice_rf_3_32_0_31_F_76| () Bool false)
(define-fun |y$r_buff1_thd3#5$rclk$8| () (_ BitVec 8) #b11101111)
(define-fun |memory_model::choice_rf_3_32_3_13_F_77| () Bool true)
(define-fun |memory_model::choice_rf_0_60_0_34_F_78| () Bool false)
(define-fun |memory_model::choice_rf_0_60_2_12_F_79| () Bool true)
(define-fun |y$w_buff0#6$wclk$8| () (_ BitVec 8) #b11101001)
(define-fun |y$w_buff0#2$rclk$8| () (_ BitVec 8) #b11111010)
(define-fun |memory_model::choice_rf_0_60_3_17_F_80| () Bool false)
(define-fun |y$w_buff0#9$wclk$8| () (_ BitVec 8) #b10111111)
(define-fun |memory_model::choice_rf_2_2_0_34_F_81| () Bool false)
(define-fun |y$w_buff0#1$wclk$8| () (_ BitVec 8) #b01010001)
(define-fun |y$w_buff0#4$rclk$8| () (_ BitVec 8) #b11101001)
(define-fun |memory_model::choice_rf_2_2_3_17_F_82| () Bool true)
(define-fun |memory_model::choice_rf_3_9_0_34_F_83| () Bool true)
(define-fun |y$w_buff0#7$rclk$8| () (_ BitVec 8) #b10111111)
(define-fun |memory_model::choice_rf_3_9_2_12_F_84| () Bool false)
(define-fun |memory_model::choice_rf_3_30_0_34_F_85| () Bool false)
(define-fun |y$w_buff0#10$rclk$8| () (_ BitVec 8) #b11101111)
(define-fun |memory_model::choice_rf_3_30_2_12_F_86| () Bool true)
(define-fun |memory_model::choice_rf_3_30_3_17_F_87| () Bool false)
(define-fun |memory_model::choice_rf_0_62_0_35_F_88| () Bool false)
(define-fun |memory_model::choice_rf_0_62_2_10_F_89| () Bool false)
(define-fun |y$w_buff0_used#13$wclk$8| () (_ BitVec 8) #b11101001)
(define-fun |y$w_buff0_used#2$rclk$8| () (_ BitVec 8) #b11111010)
(define-fun |memory_model::choice_rf_0_62_3_15_F_90| () Bool false)
(define-fun |y$w_buff0_used#16$wclk$8| () (_ BitVec 8) #b10111111)
(define-fun |memory_model::choice_rf_0_62_3_37_F_91| () Bool true)
(define-fun |y$w_buff0_used#25$wclk$8| () (_ BitVec 8) #b11101111)
(define-fun |memory_model::choice_rf_2_6_0_35_F_92| () Bool false)
(define-fun |y$w_buff0_used#1$wclk$8| () (_ BitVec 8) #b01010111)
(define-fun |y$w_buff0_used#11$rclk$8| () (_ BitVec 8) #b11101001)
(define-fun |memory_model::choice_rf_2_6_0_66_F_93| () Bool false)
(define-fun |y$w_buff0_used#10$wclk$8| () (_ BitVec 8) #b11111010)
(define-fun |memory_model::choice_rf_2_6_3_15_F_94| () Bool true)
(define-fun |memory_model::choice_rf_2_6_3_37_F_95| () Bool false)
(define-fun |memory_model::choice_rf_3_8_0_35_F_96| () Bool true)
(define-fun |y$w_buff0_used#14$rclk$8| () (_ BitVec 8) #b10111111)
(define-fun |memory_model::choice_rf_3_8_0_66_F_97| () Bool false)
(define-fun |memory_model::choice_rf_3_8_2_10_F_98| () Bool false)
(define-fun |memory_model::choice_rf_3_33_0_35_F_99| () Bool false)
(define-fun |y$w_buff0_used#17$rclk$8| () (_ BitVec 8) #b11101111)
(define-fun |memory_model::choice_rf_3_33_0_66_F_100| () Bool false)
(define-fun |memory_model::choice_rf_3_33_2_10_F_101| () Bool true)
(define-fun |memory_model::choice_rf_3_33_3_15_F_102| () Bool false)
(define-fun |memory_model::choice_rf_0_57_0_36_F_103| () Bool false)
(define-fun |memory_model::choice_rf_0_57_2_11_F_104| () Bool true)
(define-fun |y$w_buff1#6$wclk$8| () (_ BitVec 8) #b11101001)
(define-fun |y$w_buff1#2$rclk$8| () (_ BitVec 8) #b11111010)
(define-fun |memory_model::choice_rf_0_57_3_18_F_105| () Bool false)
(define-fun |y$w_buff1#7$wclk$8| () (_ BitVec 8) #b10111111)
(define-fun |memory_model::choice_rf_2_1_0_36_F_106| () Bool false)
(define-fun |y$w_buff1#1$wclk$8| () (_ BitVec 8) #b10000000)
(define-fun |y$w_buff1#4$rclk$8| () (_ BitVec 8) #b11101001)
(define-fun |memory_model::choice_rf_2_1_3_18_F_107| () Bool true)
(define-fun |memory_model::choice_rf_3_28_0_36_F_108| () Bool false)
(define-fun |y$w_buff1#8$rclk$8| () (_ BitVec 8) #b11101111)
(define-fun |memory_model::choice_rf_3_28_2_11_F_109| () Bool true)
(define-fun |memory_model::choice_rf_3_28_3_18_F_110| () Bool false)
(define-fun |memory_model::choice_rf_0_59_0_37_F_111| () Bool false)
(define-fun |memory_model::choice_rf_0_59_2_17_F_112| () Bool false)
(define-fun |y$w_buff1_used#11$wclk$8| () (_ BitVec 8) #b11101001)
(define-fun |y$w_buff1_used#2$rclk$8| () (_ BitVec 8) #b11111010)
(define-fun |memory_model::choice_rf_0_59_3_16_F_113| () Bool false)
(define-fun |y$w_buff1_used#12$wclk$8| () (_ BitVec 8) #b10111111)
(define-fun |memory_model::choice_rf_0_59_3_35_F_114| () Bool true)
(define-fun |y$w_buff1_used#19$wclk$8| () (_ BitVec 8) #b11101111)
(define-fun |memory_model::choice_rf_2_3_0_37_F_115| () Bool false)
(define-fun |y$w_buff1_used#1$wclk$8| () (_ BitVec 8) #b10000001)
(define-fun |y$w_buff1_used#9$rclk$8| () (_ BitVec 8) #b11101001)
(define-fun |memory_model::choice_rf_2_3_0_65_F_116| () Bool false)
(define-fun |y$w_buff1_used#8$wclk$8| () (_ BitVec 8) #b11111010)
(define-fun |memory_model::choice_rf_2_3_3_16_F_117| () Bool true)
(define-fun |memory_model::choice_rf_2_3_3_35_F_118| () Bool false)
(define-fun |memory_model::choice_rf_3_29_0_37_F_119| () Bool false)
(define-fun |y$w_buff1_used#13$rclk$8| () (_ BitVec 8) #b11101111)
(define-fun |memory_model::choice_rf_3_29_0_65_F_120| () Bool false)
(define-fun |memory_model::choice_rf_3_29_2_17_F_121| () Bool true)
(define-fun |memory_model::choice_rf_3_29_3_16_F_122| () Bool false)
(define-fun |memory_model::choice_rf_3_19_0_38_F_123| () Bool false)
(define-fun |z#1$wclk$8| () (_ BitVec 8) #b10001101)
(define-fun |z#3$rclk$8| () (_ BitVec 8) #b11001010)
(define-fun |memory_model::choice_rf_3_22_0_38_F_124| () Bool false)
(define-fun |z#5$rclk$8| () (_ BitVec 8) #b11100001)
(define-fun |memory_model::choice_rf_3_22_3_20_F_125| () Bool true)
(define-fun |memory_model::choice_ws-ext_0_10_1_5_T_126| () Bool true)
(define-fun |memory_model::choice_ws-ext_0_10_2_23_T_127| () Bool true)
(define-fun |memory_model::choice_ws-ext_0_10_3_42_T_128| () Bool true)
(define-fun |memory_model::choice_ws-ext_1_5_2_23_T_129| () Bool false)
(define-fun |memory_model::choice_ws-ext_1_5_3_42_T_130| () Bool false)
(define-fun |memory_model::choice_ws-ext_2_23_3_42_T_131| () Bool false)
(define-fun |x#1$wclk$8| () (_ BitVec 8) #b00110000)
(define-fun |memory_model::choice_ws-ext_0_20_1_1_F_132| () Bool true)
(define-fun |memory_model::choice_ws-ext_0_20_2_0_F_133| () Bool true)
(define-fun |memory_model::choice_ws-ext_1_1_2_0_F_134| () Bool true)
(define-fun |memory_model::choice_ws-ext_0_11_1_3_F_135| () Bool true)
(define-fun |memory_model::choice_ws-ext_0_11_2_21_F_136| () Bool true)
(define-fun |memory_model::choice_ws-ext_0_11_3_40_F_137| () Bool true)
(define-fun |memory_model::choice_ws-ext_1_3_2_21_F_138| () Bool false)
(define-fun |memory_model::choice_ws-ext_1_3_3_40_F_139| () Bool true)
(define-fun |memory_model::choice_ws-ext_2_21_3_40_F_140| () Bool true)
(define-fun |__unbuffered_p1_EAX#1$wclk$8| () (_ BitVec 8) #b00100011)
(define-fun |memory_model::choice_ws-ext_0_12_2_8_F_141| () Bool true)
(define-fun |memory_model::choice_ws-ext_0_13_3_23_F_142| () Bool true)
(define-fun |memory_model::choice_ws-ext_0_14_3_26_F_143| () Bool true)
(define-fun |memory_model::choice_ws-ext_0_15_1_0_F_144| () Bool true)
(define-fun |memory_model::choice_ws-ext_0_21_2_13_F_145| () Bool true)
(define-fun |memory_model::choice_ws-ext_0_21_3_38_F_146| () Bool true)
(define-fun |memory_model::choice_ws-ext_0_67_2_13_F_147| () Bool false)
(define-fun |memory_model::choice_ws-ext_0_67_3_38_F_148| () Bool false)
(define-fun |memory_model::choice_ws-ext_2_13_3_38_F_149| () Bool true)
(define-fun |y$flush_delayed#1$wclk$8| () (_ BitVec 8) #b00111010)
(define-fun |y$flush_delayed#3$wclk$8| () (_ BitVec 8) #b11101001)
(define-fun |memory_model::choice_ws-ext_0_22_2_16_F_150| () Bool true)
(define-fun |y$mem_tmp#1$wclk$8| () (_ BitVec 8) #b00111011)
(define-fun |y$mem_tmp#2$wclk$8| () (_ BitVec 8) #b11101001)
(define-fun |memory_model::choice_ws-ext_0_23_2_14_F_151| () Bool true)
(define-fun |memory_model::choice_ws-ext_0_26_2_15_F_152| () Bool true)
(define-fun |y$r_buff0_thd3#5$wclk$8| () (_ BitVec 8) #b10111111)
(define-fun |memory_model::choice_ws-ext_0_27_3_10_F_153| () Bool true)
(define-fun |y$r_buff0_thd3#14$wclk$8| () (_ BitVec 8) #b11101111)
(define-fun |memory_model::choice_ws-ext_0_27_3_34_F_154| () Bool true)
(define-fun |memory_model::choice_ws-ext_0_28_3_12_F_155| () Bool true)
(define-fun |memory_model::choice_ws-ext_0_63_3_12_F_156| () Bool false)
(define-fun |y$r_buff1_thd1#4$wclk$8| () (_ BitVec 8) #b10111111)
(define-fun |memory_model::choice_ws-ext_0_29_3_11_F_157| () Bool true)
(define-fun |memory_model::choice_ws-ext_0_30_2_9_F_158| () Bool true)
(define-fun |memory_model::choice_ws-ext_0_30_3_14_F_159| () Bool true)
(define-fun |memory_model::choice_ws-ext_2_9_3_14_F_160| () Bool false)
(define-fun |y$r_buff1_thd3#4$wclk$8| () (_ BitVec 8) #b10111111)
(define-fun |memory_model::choice_ws-ext_0_31_3_13_F_161| () Bool true)
(define-fun |y$r_buff1_thd3#11$wclk$8| () (_ BitVec 8) #b11101111)
(define-fun |memory_model::choice_ws-ext_0_31_3_36_F_162| () Bool true)
(define-fun |memory_model::choice_ws-ext_0_34_2_12_F_163| () Bool true)
(define-fun |memory_model::choice_ws-ext_0_34_3_17_F_164| () Bool true)
(define-fun |memory_model::choice_ws-ext_2_12_3_17_F_165| () Bool false)
(define-fun |memory_model::choice_ws-ext_0_35_2_10_F_166| () Bool true)
(define-fun |memory_model::choice_ws-ext_0_35_3_15_F_167| () Bool true)
(define-fun |memory_model::choice_ws-ext_0_35_3_37_F_168| () Bool true)
(define-fun |memory_model::choice_ws-ext_0_66_2_10_F_169| () Bool false)
(define-fun |memory_model::choice_ws-ext_0_66_3_15_F_170| () Bool false)
(define-fun |memory_model::choice_ws-ext_0_66_3_37_F_171| () Bool false)
(define-fun |memory_model::choice_ws-ext_2_10_3_15_F_172| () Bool false)
(define-fun |memory_model::choice_ws-ext_2_10_3_37_F_173| () Bool true)
(define-fun |memory_model::choice_ws-ext_0_36_2_11_F_174| () Bool true)
(define-fun |memory_model::choice_ws-ext_0_36_3_18_F_175| () Bool true)
(define-fun |memory_model::choice_ws-ext_2_11_3_18_F_176| () Bool false)
(define-fun |memory_model::choice_ws-ext_0_37_2_17_F_177| () Bool true)
(define-fun |memory_model::choice_ws-ext_0_37_3_16_F_178| () Bool true)
(define-fun |memory_model::choice_ws-ext_0_37_3_35_F_179| () Bool true)
(define-fun |memory_model::choice_ws-ext_0_65_2_17_F_180| () Bool false)
(define-fun |memory_model::choice_ws-ext_0_65_3_16_F_181| () Bool false)
(define-fun |memory_model::choice_ws-ext_0_65_3_35_F_182| () Bool false)
(define-fun |memory_model::choice_ws-ext_2_17_3_16_F_183| () Bool false)
(define-fun |memory_model::choice_ws-ext_2_17_3_35_F_184| () Bool true)
(define-fun |z#4$wclk$8| () (_ BitVec 8) #b11001010)
(define-fun |memory_model::choice_ws-ext_0_38_3_20_F_185| () Bool true)
(define-fun |weak$$choice0#1$wclk$8| () (_ BitVec 8) #b00101011)
(define-fun |weak$$choice0#2$wclk$8| () (_ BitVec 8) #b11101001)
(define-fun |memory_model::choice_ws-ext_0_18_2_19_F_186| () Bool true)
(define-fun |weak$$choice2#1$wclk$8| () (_ BitVec 8) #b00101111)
(define-fun |weak$$choice2#2$wclk$8| () (_ BitVec 8) #b11101001)
(define-fun |memory_model::choice_ws-ext_0_19_2_18_F_187| () Bool true)
(define-fun t1$42$spwnclk$8 () (_ BitVec 8) #b10011101)
(define-fun t1$47$spwnclk$8 () (_ BitVec 8) #b10111010)
(define-fun t1$52$spwnclk$8 () (_ BitVec 8) #b10111110)
(define-fun |main::1::t1007!0@1$wclk$8| () (_ BitVec 8) #b00000010)
(define-fun |main::1::t1008!0@1$wclk$8| () (_ BitVec 8) #b00000011)
(define-fun |__CPROVER_dead_object#1$wclk$8| () (_ BitVec 8) #b00000100)
(define-fun |__CPROVER_deallocated#1$wclk$8| () (_ BitVec 8) #b00000101)
(define-fun |__CPROVER_malloc_is_new_array#1$wclk$8| () (_ BitVec 8) #b00001000)
(define-fun |__CPROVER_malloc_object#1$wclk$8| () (_ BitVec 8) #b00001010)
(define-fun |__CPROVER_malloc_size#1$wclk$8| () (_ BitVec 8) #b00001011)
(define-fun |__CPROVER_memory_leak#1$wclk$8| () (_ BitVec 8) #b00010010)
(define-fun |__CPROVER_next_thread_id#1$wclk$8| () (_ BitVec 8) #b00010011)
(define-fun |__CPROVER_pipe_count#1$wclk$8| () (_ BitVec 8) #b00100000)
(define-fun |main$tmp_guard0#1$wclk$8| () (_ BitVec 8) #b00101001)
(define-fun |main$tmp_guard1#1$wclk$8| () (_ BitVec 8) #b00101010)
(define-fun |y$read_delayed#1$wclk$8| () (_ BitVec 8) #b01001111)
(define-fun |y$read_delayed_var#1$wclk$8| () (_ BitVec 8) #b01010000)
(define-fun |main::1::t1006!0@1#1$wclk$8| () (_ BitVec 8) #b10001110)
(define-fun |__CPROVER_next_thread_id#2$wclk$8| () (_ BitVec 8) #b10010000)
(define-fun |main::1::t1006!0@1#2$wclk$8| () (_ BitVec 8) #b10011100)
(define-fun |main::1::t1007!0@1#1$wclk$8| () (_ BitVec 8) #b10011110)
(define-fun |__CPROVER_next_thread_id#3$rclk$8| () (_ BitVec 8) #b10011111)
(define-fun |__CPROVER_next_thread_id#5$wclk$8| () (_ BitVec 8) #b10011111)
(define-fun |main::1::t1007!0@1#2$wclk$8| () (_ BitVec 8) #b10111000)
(define-fun |main::1::t1008!0@1#1$wclk$8| () (_ BitVec 8) #b10111011)
(define-fun |__CPROVER_next_thread_id#6$rclk$8| () (_ BitVec 8) #b10111100)
(define-fun |__CPROVER_next_thread_id#8$wclk$8| () (_ BitVec 8) #b10111100)
(define-fun |main::1::t1008!0@1#2$wclk$8| () (_ BitVec 8) #b10111101)
(define-fun |main$tmp_guard0#2$wclk$8| () (_ BitVec 8) #b11110101)
(define-fun |main$tmp_guard0#3$rclk$8| () (_ BitVec 8) #b11110110)
(define-fun |y$r_buff0_thd0#2$rclk$8| () (_ BitVec 8) #b11111010)
(define-fun |main$tmp_guard1#3$rclk$8| () (_ BitVec 8) #b11111011)
(define-fun |main$tmp_guard1#4$wclk$8| () (_ BitVec 8) #b11111011)
(define-fun |main$tmp_guard1#5$rclk$8| () (_ BitVec 8) #b11111110)
(define-fun |main$tmp_guard1#6$rclk$8| () (_ BitVec 8) #b11111111)
)

real	0m0.231s
user	0m0.224s
sys	0m0.007s
State: AC Run_time: 0.2334604263305664